data;
param n:=50;
param w:=1 -257 2 -19 3 88 4 20 5 74 6 136 7 5 8 180 9 -37 10 -254 11 -208 12 -99 13 162 14 -22 15 34 16 -28 17 22 18 -211 19 38 20 -8 21 -104 22 196 23 -118 24 213 25 -235 26 197 27 175 28 -101 29 -156 30 201 31 133 32 172 33 -250 34 1 35 71 36 -229 37 143 38 -216 39 -244 40 -36 41 78 42 59 43 -202 44 139 45 144 46 165 47 -77 48 85 49 110 50 70;
